p cnf 7230 17
-4624 -7089 -7094 0
4624 -7090 0
-4512 -7059 7086 0
-7090 7094 0
-4626 -7069 -7091 0
4626 -7092 0
-7093 -7094 0
7091 7092 0
7089 7090 0
7087 7088 0
7065 -7088 0
-7065 -7087 0
7069 -7092 0
-7085 -7086 0
-7067 7094 0
7085 7086 0
7067 -7094 0
